Route 1: 0 81 95 51 66 71 23 0
Route 2: 0 64 94 73 84 60 92 56 48 0
Route 3: 0 59 76 41 29 4 15 65 96 0
Route 4: 0 47 31 18 86 79 83 50 85 52 5 0
Route 5: 0 91 90 42 45 2 98 25 16 27 82 61 0
Route 6: 0 32 14 1 55 12 53 0
Route 7: 0 74 22 54 58 78 46 68 19 7 37 40 0
Route 8: 0 13 44 67 43 77 88 9 33 89 72 3 34 0
Route 9: 0 100 99 20 63 24 21 49 17 11 38 0
Route 10: 0 57 62 30 6 39 28 8 93 35 0
Route 11: 0 75 26 97 69 87 70 36 0
Route 12: 0 80 10 0
